1 0 0 0 1 1 0 1 1 0 0 0 0 
0 43 37 47 2 8 40 36 4 44 34 5 48 
43 0 22 27 21 26 47 21 8 3 36 34 6 
37 22 0 49 33 6 38 6 26 18 7 20 50 
47 27 49 0 6 6 41 7 32 16 3 37 11 
2 21 33 6 0 9 11 29 34 27 16 5 49 
8 26 6 6 9 0 47 12 11 11 34 27 18 
40 47 38 41 11 47 0 22 4 22 21 18 47 
36 21 6 7 29 12 22 0 48 35 45 17 12 
4 8 26 32 34 11 4 48 0 44 43 13 5 
44 3 18 16 27 11 22 35 44 0 31 8 6 
34 36 7 3 16 34 21 45 43 31 0 14 17 
5 34 20 37 5 27 18 17 13 8 14 0 14 
48 6 50 11 49 18 47 12 5 6 17 14 0 
3 5
1P 5P 7B 9P 13B 2B 10B 6P 3B 8P 4B 11B 12B = 83